sat
(
(define-fun sym122 () String "MIDDLE SCHOOL")
(define-fun sym400 () String "")
(define-fun sym742 () String "")
(define-fun sym247 () String "")
(define-fun sym514 () String "")
(define-fun sym856 () String "/QUIT")
(define-fun sym628 () String "")
)
